Cost: 574
0-27-1-32-11-46-0
0-22-36-35-20-29-0
0-12-5-10-30-38-0
0-37-15-44-4-47-0
0-2-3-28-31-8-0
0-6-23-7-24-14-0
0-18-13-19-17-0
0-16-21-34-9-0
Cost: 574
0-9-34-21-16-0
0-14-24-23-7-6-0
0-29-20-35-36-22-0
0-18-13-19-17-0
0-37-15-44-4-47-0
0-38-30-10-5-12-0
0-2-3-28-31-8-0
0-27-1-32-11-46-0
Cost: 574
0-27-1-32-11-46-0
0-22-36-35-20-29-0
0-12-5-10-30-38-0
0-37-15-44-4-47-0
0-2-3-28-31-8-0
0-6-23-7-24-14-0
0-18-13-19-17-0
0-16-21-34-9-0
Cost: 574
0-22-36-35-20-29-0
0-27-1-32-11-46-0
0-37-15-44-4-47-0
0-17-19-13-18-0
0-14-24-23-7-6-0
0-38-30-10-5-12-0
0-16-21-34-9-0
0-2-3-28-31-8-0
Cost: 574
0-17-19-13-18-0
0-9-34-21-16-0
0-46-11-32-1-27-0
0-8-31-28-3-2-0
0-6-7-23-24-14-0
0-47-4-44-15-37-0
0-29-20-35-36-22-0
0-38-30-10-5-12-0
Cost: 574
0-2-3-28-31-8-0
0-6-7-23-24-14-0
0-47-4-44-15-37-0
0-22-36-35-20-29-0
0-16-21-34-9-0
0-38-30-10-5-12-0
0-18-13-19-17-0
0-46-11-32-1-27-0
Cost: 574
0-18-13-19-17-0
0-6-23-7-24-14-0
0-27-1-32-11-46-0
0-8-31-28-3-2-0
0-22-36-35-20-29-0
0-37-15-44-4-47-0
0-16-21-34-9-0
0-12-5-10-30-38-0
Cost: 574
0-38-30-10-5-12-0
0-27-1-32-11-46-0
0-18-13-19-17-0
0-6-23-7-24-14-0
0-8-31-28-3-2-0
0-22-36-35-20-29-0
0-37-15-44-4-47-0
0-9-34-21-16-0
Cost: 574
0-47-4-44-15-37-0
0-27-1-32-11-46-0
0-9-34-21-16-0
0-12-5-10-30-38-0
0-6-23-7-24-14-0
0-22-36-35-20-29-0
0-8-31-28-3-2-0
0-17-19-13-18-0
Cost: 574
0-37-15-44-4-47-0
0-29-20-35-36-22-0
0-38-30-10-5-12-0
0-6-7-23-24-14-0
0-8-31-28-3-2-0
0-17-19-13-18-0
0-9-34-21-16-0
0-46-11-32-1-27-0
Cost: 574
0-9-34-21-16-0
0-22-36-35-20-29-0
0-38-30-10-5-12-0
0-17-19-13-18-0
0-27-1-32-11-46-0
0-37-15-44-4-47-0
0-14-24-23-7-6-0
0-2-3-28-31-8-0
Cost: 574
0-27-1-32-11-46-0
0-2-3-28-31-8-0
0-37-15-44-4-47-0
0-6-7-23-24-14-0
0-38-30-10-5-12-0
0-16-21-34-9-0
0-17-19-13-18-0
0-29-20-35-36-22-0
Cost: 574
0-14-24-23-7-6-0
0-2-3-28-31-8-0
0-29-20-35-36-22-0
0-38-30-10-5-12-0
0-16-21-34-9-0
0-46-11-32-1-27-0
0-47-4-44-15-37-0
0-18-13-19-17-0
Cost: 574
0-37-15-44-4-47-0
0-2-3-28-31-8-0
0-16-21-34-9-0
0-18-13-19-17-0
0-12-5-10-30-38-0
0-22-36-35-20-29-0
0-46-11-32-1-27-0
0-14-24-7-23-6-0
Cost: 574
0-8-31-28-3-2-0
0-47-4-44-15-37-0
0-38-30-10-5-12-0
0-9-34-21-16-0
0-27-1-32-11-46-0
0-14-24-7-23-6-0
0-18-13-19-17-0
0-22-36-35-20-29-0
Cost: 574
0-29-20-35-36-22-0
0-6-7-23-24-14-0
0-12-5-10-30-38-0
0-17-19-13-18-0
0-2-3-28-31-8-0
0-27-1-32-11-46-0
0-47-4-44-15-37-0
0-9-34-21-16-0
Cost: 574
0-22-36-35-20-29-0
0-17-19-13-18-0
0-38-30-10-5-12-0
0-6-7-23-24-14-0
0-27-1-32-11-46-0
0-9-34-21-16-0
0-47-4-44-15-37-0
0-2-3-28-31-8-0
Cost: 574
0-37-15-44-4-47-0
0-9-34-21-16-0
0-46-11-32-1-27-0
0-29-20-35-36-22-0
0-2-3-28-31-8-0
0-18-13-19-17-0
0-38-30-10-5-12-0
0-6-7-23-24-14-0
Cost: 574
0-2-3-28-31-8-0
0-14-24-23-7-6-0
0-22-36-35-20-29-0
0-47-4-44-15-37-0
0-17-19-13-18-0
0-9-34-21-16-0
0-27-1-32-11-46-0
0-38-30-10-5-12-0
Cost: 574
0-2-3-28-31-8-0
0-22-36-35-20-29-0
0-17-19-13-18-0
0-38-30-10-5-12-0
0-27-1-32-11-46-0
0-16-21-34-9-0
0-37-15-44-4-47-0
0-6-7-23-24-14-0
Cost: 574
0-46-11-32-1-27-0
0-14-24-23-7-6-0
0-2-3-28-31-8-0
0-16-21-34-9-0
0-37-15-44-4-47-0
0-12-5-10-30-38-0
0-18-13-19-17-0
0-22-36-35-20-29-0
Cost: 574
0-12-5-10-30-38-0
0-9-34-21-16-0
0-2-3-28-31-8-0
0-27-1-32-11-46-0
0-47-4-44-15-37-0
0-18-13-19-17-0
0-29-20-35-36-22-0
0-6-23-7-24-14-0
Cost: 574
0-27-1-32-11-46-0
0-18-13-19-17-0
0-2-3-28-31-8-0
0-16-21-34-9-0
0-29-20-35-36-22-0
0-14-24-23-7-6-0
0-12-5-10-30-38-0
0-47-4-44-15-37-0
Cost: 574
0-18-13-19-17-0
0-2-3-28-31-8-0
0-9-34-21-16-0
0-6-23-7-24-14-0
0-47-4-44-15-37-0
0-46-11-32-1-27-0
0-29-20-35-36-22-0
0-38-30-10-5-12-0
Cost: 574
0-16-21-34-9-0
0-27-1-32-11-46-0
0-6-23-7-24-14-0
0-12-5-10-30-38-0
0-18-13-19-17-0
0-8-31-28-3-2-0
0-47-4-44-15-37-0
0-22-36-35-20-29-0
Cost: 574
0-17-19-13-18-0
0-14-24-23-7-6-0
0-22-36-35-20-29-0
0-2-3-28-31-8-0
0-38-30-10-5-12-0
0-16-21-34-9-0
0-47-4-44-15-37-0
0-46-11-32-1-27-0
Cost: 0
Cost: 0
Cost: 0
Cost: 0
Cost: 0
